p cnf 1406
-20 -440
-21 -443
-22 -446
-23 -449
-24 -452
-25 -455
-26 -458
-27 -461
-28 -464
-29 -467
-30 -470
-31 -473
-32 -476
-33 -479
-34 -482
-35 -485
-36 -488
-37 -491
-38 -494
-39 495
-40 496
-41 497
-42 498
-43 499
-44 500
-45 501
-46 502
-47 503
-48 504
-49 505
-50 506
-51 -21
-51 -22
21 22 51
-52 -23
-52 -24
23 24 52
-53 -25
-53 -26
25 26 53
-54 -27
-54 -28
27 28 54
-55 -29
-55 -30
29 30 55
-56 -31
-56 -32
31 32 56
-57 -33
-57 -34
33 34 57
-58 -35
-58 -36
35 36 58
-59 -37
-59 -38
37 38 59
-60 -39
-60 -40
39 40 60
-61 -41
-61 -42
41 42 61
-62 -43
-62 -44
43 44 62
-63 -45
-63 -46
45 46 63
-64 -47
-64 -48
47 48 64
-65 -49
-65 -50
49 50 65
-66 51
-66 52
-51 -52 66
-67 53
-67 54
-53 -54 67
-68 55
-68 56
-55 -56 68
-69 57
-69 58
-57 -58 69
-70 59
-70 60
-59 -60 70
-71 61
-71 62
-61 -62 71
-72 63
-72 64
-63 -64 72
-73 66
-73 67
-66 -67 73
-74 68
-74 69
-68 -69 74
-75 70
-75 71
-70 -71 75
-76 65
-76 72
-65 -72 76
-77 73
-77 74
-73 -74 77
-78 75
-78 76
-75 -76 78
-79 77
-79 78
-77 -78 79
-80 -20
-80 21
20 -21 80
-81 20
-81 -21
-20 21 81
-82 -80
-82 -81
80 81 82
-83 20
-83 21
-20 -21 83
-84 -20
-84 -82
20 82 84
-85 20
-85 82
-20 -82 85
-86 -84
-86 -85
84 85 86
-87 20
-87 -82
-20 82 87
-88 -83
-88 -87
83 87 88
-89 -21
-89 22
21 -22 89
-90 21
-90 -22
-21 22 90
-91 -89
-91 -90
89 90 91
-92 21
-92 22
-21 -22 92
-93 88
-93 -91
-88 91 93
-94 -88
-94 91
88 -91 94
-95 -93
-95 -94
93 94 95
-96 -88
-96 -91
88 91 96
-97 -92
-97 -96
92 96 97
-98 -22
-98 23
22 -23 98
-99 22
-99 -23
-22 23 99
-100 -98
-100 -99
98 99 100
-101 22
-101 23
-22 -23 101
-102 97
-102 -100
-97 100 102
-103 -97
-103 100
97 -100 103
-104 -102
-104 -103
102 103 104
-105 -97
-105 -100
97 100 105
-106 -101
-106 -105
101 105 106
-107 -23
-107 24
23 -24 107
-108 23
-108 -24
-23 24 108
-109 -107
-109 -108
107 108 109
-110 23
-110 24
-23 -24 110
-111 106
-111 -109
-106 109 111
-112 -106
-112 109
106 -109 112
-113 -111
-113 -112
111 112 113
-114 -106
-114 -109
106 109 114
-115 -110
-115 -114
110 114 115
-116 -24
-116 25
24 -25 116
-117 24
-117 -25
-24 25 117
-118 -116
-118 -117
116 117 118
-119 24
-119 25
-24 -25 119
-120 115
-120 -118
-115 118 120
-121 -115
-121 118
115 -118 121
-122 -120
-122 -121
120 121 122
-123 -115
-123 -118
115 118 123
-124 -119
-124 -123
119 123 124
-125 -25
-125 26
25 -26 125
-126 25
-126 -26
-25 26 126
-127 -125
-127 -126
125 126 127
-128 25
-128 26
-25 -26 128
-129 124
-129 -127
-124 127 129
-130 -124
-130 127
124 -127 130
-131 -129
-131 -130
129 130 131
-132 -124
-132 -127
124 127 132
-133 -128
-133 -132
128 132 133
-134 -26
-134 27
26 -27 134
-135 26
-135 -27
-26 27 135
-136 -134
-136 -135
134 135 136
-137 26
-137 27
-26 -27 137
-138 133
-138 -136
-133 136 138
-139 -133
-139 136
133 -136 139
-140 -138
-140 -139
138 139 140
-141 -133
-141 -136
133 136 141
-142 -137
-142 -141
137 141 142
-143 -27
-143 28
27 -28 143
-144 27
-144 -28
-27 28 144
-145 -143
-145 -144
143 144 145
-146 27
-146 28
-27 -28 146
-147 142
-147 -145
-142 145 147
-148 -142
-148 145
142 -145 148
-149 -147
-149 -148
147 148 149
-150 -142
-150 -145
142 145 150
-151 -146
-151 -150
146 150 151
-152 -28
-152 29
28 -29 152
-153 28
-153 -29
-28 29 153
-154 -152
-154 -153
152 153 154
-155 28
-155 29
-28 -29 155
-156 151
-156 -154
-151 154 156
-157 -151
-157 154
151 -154 157
-158 -156
-158 -157
156 157 158
-159 -151
-159 -154
151 154 159
-160 -155
-160 -159
155 159 160
-161 -29
-161 30
29 -30 161
-162 29
-162 -30
-29 30 162
-163 -161
-163 -162
161 162 163
-164 29
-164 30
-29 -30 164
-165 160
-165 -163
-160 163 165
-166 -160
-166 163
160 -163 166
-167 -165
-167 -166
165 166 167
-168 -160
-168 -163
160 163 168
-169 -164
-169 -168
164 168 169
-170 -30
-170 31
30 -31 170
-171 30
-171 -31
-30 31 171
-172 -170
-172 -171
170 171 172
-173 30
-173 31
-30 -31 173
-174 169
-174 -172
-169 172 174
-175 -169
-175 172
169 -172 175
-176 -174
-176 -175
174 175 176
-177 -169
-177 -172
169 172 177
-178 -173
-178 -177
173 177 178
-179 -31
-179 32
31 -32 179
-180 31
-180 -32
-31 32 180
-181 -179
-181 -180
179 180 181
-182 31
-182 32
-31 -32 182
-183 178
-183 -181
-178 181 183
-184 -178
-184 181
178 -181 184
-185 -183
-185 -184
183 184 185
-186 -178
-186 -181
178 181 186
-187 -182
-187 -186
182 186 187
-188 -32
-188 33
32 -33 188
-189 32
-189 -33
-32 33 189
-190 -188
-190 -189
188 189 190
-191 32
-191 33
-32 -33 191
-192 187
-192 -190
-187 190 192
-193 -187
-193 190
187 -190 193
-194 -192
-194 -193
192 193 194
-195 -187
-195 -190
187 190 195
-196 -191
-196 -195
191 195 196
-197 -33
-197 34
33 -34 197
-198 33
-198 -34
-33 34 198
-199 -197
-199 -198
197 198 199
-200 33
-200 34
-33 -34 200
-201 196
-201 -199
-196 199 201
-202 -196
-202 199
196 -199 202
-203 -201
-203 -202
201 202 203
-204 -196
-204 -199
196 199 204
-205 -200
-205 -204
200 204 205
-206 -34
-206 35
34 -35 206
-207 34
-207 -35
-34 35 207
-208 -206
-208 -207
206 207 208
-209 34
-209 35
-34 -35 209
-210 205
-210 -208
-205 208 210
-211 -205
-211 208
205 -208 211
-212 -210
-212 -211
210 211 212
-213 -205
-213 -208
205 208 213
-214 -209
-214 -213
209 213 214
-215 -35
-215 36
35 -36 215
-216 35
-216 -36
-35 36 216
-217 -215
-217 -216
215 216 217
-218 35
-218 36
-35 -36 218
-219 214
-219 -217
-214 217 219
-220 -214
-220 217
214 -217 220
-221 -219
-221 -220
219 220 221
-222 -214
-222 -217
214 217 222
-223 -218
-223 -222
218 222 223
-224 -36
-224 37
36 -37 224
-225 36
-225 -37
-36 37 225
-226 -224
-226 -225
224 225 226
-227 36
-227 37
-36 -37 227
-228 223
-228 -226
-223 226 228
-229 -223
-229 226
223 -226 229
-230 -228
-230 -229
228 229 230
-231 -223
-231 -226
223 226 231
-232 -227
-232 -231
227 231 232
-233 -37
-233 38
37 -38 233
-234 37
-234 -38
-37 38 234
-235 -233
-235 -234
233 234 235
-236 37
-236 38
-37 -38 236
-237 232
-237 -235
-232 235 237
-238 -232
-238 235
232 -235 238
-239 -237
-239 -238
237 238 239
-240 -232
-240 -235
232 235 240
-241 -236
-241 -240
236 240 241
-242 -38
-242 39
38 -39 242
-243 38
-243 -39
-38 39 243
-244 -242
-244 -243
242 243 244
-245 38
-245 39
-38 -39 245
-246 241
-246 -244
-241 244 246
-247 -241
-247 244
241 -244 247
-248 -246
-248 -247
246 247 248
-249 -241
-249 -244
241 244 249
-250 -245
-250 -249
245 249 250
-251 -39
-251 40
39 -40 251
-252 39
-252 -40
-39 40 252
-253 -251
-253 -252
251 252 253
-254 39
-254 40
-39 -40 254
-255 250
-255 -253
-250 253 255
-256 -250
-256 253
250 -253 256
-257 -255
-257 -256
255 256 257
-258 -250
-258 -253
250 253 258
-259 -254
-259 -258
254 258 259
-260 -40
-260 41
40 -41 260
-261 40
-261 -41
-40 41 261
-262 -260
-262 -261
260 261 262
-263 40
-263 41
-40 -41 263
-264 259
-264 -262
-259 262 264
-265 -259
-265 262
259 -262 265
-266 -264
-266 -265
264 265 266
-267 -259
-267 -262
259 262 267
-268 -263
-268 -267
263 267 268
-269 -41
-269 42
41 -42 269
-270 41
-270 -42
-41 42 270
-271 -269
-271 -270
269 270 271
-272 41
-272 42
-41 -42 272
-273 268
-273 -271
-268 271 273
-274 -268
-274 271
268 -271 274
-275 -273
-275 -274
273 274 275
-276 -268
-276 -271
268 271 276
-277 -272
-277 -276
272 276 277
-278 -42
-278 43
42 -43 278
-279 42
-279 -43
-42 43 279
-280 -278
-280 -279
278 279 280
-281 42
-281 43
-42 -43 281
-282 277
-282 -280
-277 280 282
-283 -277
-283 280
277 -280 283
-284 -282
-284 -283
282 283 284
-285 -277
-285 -280
277 280 285
-286 -281
-286 -285
281 285 286
-287 -43
-287 44
43 -44 287
-288 43
-288 -44
-43 44 288
-289 -287
-289 -288
287 288 289
-290 43
-290 44
-43 -44 290
-291 286
-291 -289
-286 289 291
-292 -286
-292 289
286 -289 292
-293 -291
-293 -292
291 292 293
-294 -286
-294 -289
286 289 294
-295 -290
-295 -294
290 294 295
-296 -44
-296 45
44 -45 296
-297 44
-297 -45
-44 45 297
-298 -296
-298 -297
296 297 298
-299 44
-299 45
-44 -45 299
-300 295
-300 -298
-295 298 300
-301 -295
-301 298
295 -298 301
-302 -300
-302 -301
300 301 302
-303 -295
-303 -298
295 298 303
-304 -299
-304 -303
299 303 304
-305 -45
-305 46
45 -46 305
-306 45
-306 -46
-45 46 306
-307 -305
-307 -306
305 306 307
-308 45
-308 46
-45 -46 308
-309 304
-309 -307
-304 307 309
-310 -304
-310 307
304 -307 310
-311 -309
-311 -310
309 310 311
-312 -304
-312 -307
304 307 312
-313 -308
-313 -312
308 312 313
-314 -46
-314 47
46 -47 314
-315 46
-315 -47
-46 47 315
-316 -314
-316 -315
314 315 316
-317 46
-317 47
-46 -47 317
-318 313
-318 -316
-313 316 318
-319 -313
-319 316
313 -316 319
-320 -318
-320 -319
318 319 320
-321 -313
-321 -316
313 316 321
-322 -317
-322 -321
317 321 322
-323 -47
-323 48
47 -48 323
-324 47
-324 -48
-47 48 324
-325 -323
-325 -324
323 324 325
-326 47
-326 48
-47 -48 326
-327 322
-327 -325
-322 325 327
-328 -322
-328 325
322 -325 328
-329 -327
-329 -328
327 328 329
-330 -322
-330 -325
322 325 330
-331 -326
-331 -330
326 330 331
-332 -48
-332 49
48 -49 332
-333 48
-333 -49
-48 49 333
-334 -332
-334 -333
332 333 334
-335 48
-335 49
-48 -49 335
-336 331
-336 -334
-331 334 336
-337 -331
-337 334
331 -334 337
-338 -336
-338 -337
336 337 338
-339 -331
-339 -334
331 334 339
-340 -335
-340 -339
335 339 340
-341 -49
-341 50
49 -50 341
-342 49
-342 -50
-49 50 342
-343 -341
-343 -342
341 342 343
-344 49
-344 50
-49 -50 344
-345 340
-345 -343
-340 343 345
-346 -340
-346 343
340 -343 346
-347 -345
-347 -346
345 346 347
-348 -340
-348 -343
340 343 348
-349 -344
-349 -348
344 348 349
-350 20
-350 -86
-20 86 350
-351 -20
-351 22
20 -22 351
-352 -350
-352 -351
350 351 352
-353 20
-353 -95
-20 95 353
-354 -20
-354 23
20 -23 354
-355 -353
-355 -354
353 354 355
-356 20
-356 -104
-20 104 356
-357 -20
-357 24
20 -24 357
-358 -356
-358 -357
356 357 358
-359 20
-359 -113
-20 113 359
-360 -20
-360 25
20 -25 360
-361 -359
-361 -360
359 360 361
-362 20
-362 -122
-20 122 362
-363 -20
-363 26
20 -26 363
-364 -362
-364 -363
362 363 364
-365 20
-365 -131
-20 131 365
-366 -20
-366 27
20 -27 366
-367 -365
-367 -366
365 366 367
-368 20
-368 -140
-20 140 368
-369 -20
-369 28
20 -28 369
-370 -368
-370 -369
368 369 370
-371 20
-371 -149
-20 149 371
-372 -20
-372 29
20 -29 372
-373 -371
-373 -372
371 372 373
-374 20
-374 -158
-20 158 374
-375 -20
-375 30
20 -30 375
-376 -374
-376 -375
374 375 376
-377 20
-377 -167
-20 167 377
-378 -20
-378 31
20 -31 378
-379 -377
-379 -378
377 378 379
-380 20
-380 -176
-20 176 380
-381 -20
-381 32
20 -32 381
-382 -380
-382 -381
380 381 382
-383 20
-383 -185
-20 185 383
-384 -20
-384 33
20 -33 384
-385 -383
-385 -384
383 384 385
-386 20
-386 -194
-20 194 386
-387 -20
-387 34
20 -34 387
-388 -386
-388 -387
386 387 388
-389 20
-389 -203
-20 203 389
-390 -20
-390 35
20 -35 390
-391 -389
-391 -390
389 390 391
-392 20
-392 -212
-20 212 392
-393 -20
-393 36
20 -36 393
-394 -392
-394 -393
392 393 394
-395 20
-395 -221
-20 221 395
-396 -20
-396 37
20 -37 396
-397 -395
-397 -396
395 396 397
-398 20
-398 -230
-20 230 398
-399 -20
-399 38
20 -38 399
-400 -398
-400 -399
398 399 400
-401 20
-401 -239
-20 239 401
-402 -20
-402 39
20 -39 402
-403 -401
-403 -402
401 402 403
-404 20
-404 -248
-20 248 404
-405 -20
-405 40
20 -40 405
-406 -404
-406 -405
404 405 406
-407 20
-407 -257
-20 257 407
-408 -20
-408 41
20 -41 408
-409 -407
-409 -408
407 408 409
-410 20
-410 -266
-20 266 410
-411 -20
-411 42
20 -42 411
-412 -410
-412 -411
410 411 412
-413 20
-413 -275
-20 275 413
-414 -20
-414 43
20 -43 414
-415 -413
-415 -414
413 414 415
-416 20
-416 -284
-20 284 416
-417 -20
-417 44
20 -44 417
-418 -416
-418 -417
416 417 418
-419 20
-419 -293
-20 293 419
-420 -20
-420 45
20 -45 420
-421 -419
-421 -420
419 420 421
-422 20
-422 -302
-20 302 422
-423 -20
-423 46
20 -46 423
-424 -422
-424 -423
422 423 424
-425 20
-425 -311
-20 311 425
-426 -20
-426 47
20 -47 426
-427 -425
-427 -426
425 426 427
-428 20
-428 -320
-20 320 428
-429 -20
-429 48
20 -48 429
-430 -428
-430 -429
428 429 430
-431 20
-431 -329
-20 329 431
-432 -20
-432 49
20 -49 432
-433 -431
-433 -432
431 432 433
-434 20
-434 -338
-20 338 434
-435 -20
-435 50
20 -50 435
-436 -434
-436 -435
434 435 436
-437 20
-437 -347
-20 347 437
-438 1
-438 79
-1 -79 438
-439 -79
-439 80
79 -80 439
-440 -438
-440 -439
438 439 440
-441 2
-441 79
-2 -79 441
-442 -79
-442 -352
79 352 442
-443 -441
-443 -442
441 442 443
-444 3
-444 79
-3 -79 444
-445 -79
-445 -355
79 355 445
-446 -444
-446 -445
444 445 446
-447 4
-447 79
-4 -79 447
-448 -79
-448 -358
79 358 448
-449 -447
-449 -448
447 448 449
-450 5
-450 79
-5 -79 450
-451 -79
-451 -361
79 361 451
-452 -450
-452 -451
450 451 452
-453 6
-453 79
-6 -79 453
-454 -79
-454 -364
79 364 454
-455 -453
-455 -454
453 454 455
-456 7
-456 79
-7 -79 456
-457 -79
-457 -367
79 367 457
-458 -456
-458 -457
456 457 458
-459 8
-459 79
-8 -79 459
-460 -79
-460 -370
79 370 460
-461 -459
-461 -460
459 460 461
-462 9
-462 79
-9 -79 462
-463 -79
-463 -373
79 373 463
-464 -462
-464 -463
462 463 464
-465 10
-465 79
-10 -79 465
-466 -79
-466 -376
79 376 466
-467 -465
-467 -466
465 466 467
-468 11
-468 79
-11 -79 468
-469 -79
-469 -379
79 379 469
-470 -468
-470 -469
468 469 470
-471 12
-471 79
-12 -79 471
-472 -79
-472 -382
79 382 472
-473 -471
-473 -472
471 472 473
-474 13
-474 79
-13 -79 474
-475 -79
-475 -385
79 385 475
-476 -474
-476 -475
474 475 476
-477 14
-477 79
-14 -79 477
-478 -79
-478 -388
79 388 478
-479 -477
-479 -478
477 478 479
-480 15
-480 79
-15 -79 480
-481 -79
-481 -391
79 391 481
-482 -480
-482 -481
480 481 482
-483 16
-483 79
-16 -79 483
-484 -79
-484 -394
79 394 484
-485 -483
-485 -484
483 484 485
-486 17
-486 79
-17 -79 486
-487 -79
-487 -397
79 397 487
-488 -486
-488 -487
486 487 488
-489 18
-489 79
-18 -79 489
-490 -79
-490 -400
79 400 490
-491 -489
-491 -490
489 490 491
-492 19
-492 79
-19 -79 492
-493 -79
-493 -403
79 403 493
-494 -492
-494 -493
492 493 494
-495 -79
-495 -406
79 406 495
-496 -79
-496 -409
79 409 496
-497 -79
-497 -412
79 412 497
-498 -79
-498 -415
79 415 498
-499 -79
-499 -418
79 418 499
-500 -79
-500 -421
79 421 500
-501 -79
-501 -424
79 424 501
-502 -79
-502 -427
79 427 502
-503 -79
-503 -430
79 430 503
-504 -79
-504 -433
79 433 504
-505 -79
-505 -436
79 436 505
-506 -79
-506 437
79 -437 506
-507 -50
-507 349
50 -349 507
-508 20
-508 -507
-20 507 508
508
